50
150
100
98
91
87
82
78
77
77
77
75
75
74
72
72
72
70
70
66
66
65
63
63
62
59
57
56
55
53
52
51
49
48
47
46
46
44
44
42
36
35
34
34
31
30
29
26
23
22
21
20
